10 20
59 36 45 90 66 45 18 14 89 98 88 68 17 17 0 50 45 88 66 30
53 10 12 26 5 75 51 8 17 94 22 97 78 49 24 6 81 68 18 76
45 43 88 64 55 53 16 41 9 55 97 77 63 57 63 27 7 6 100 7
63 90 31 69 93 16 40 4 92 37 31 79 59 72 36 81 15 76 34 73
61 3 64 83 74 11 67 48 84 57 9 89 6 79 100 83 81 53 89 32
80 7 9 18 18 80 82 76 73 87 99 40 35 96 51 82 6 37 100 34
18 71 29 74 79 48 90 43 50 64 55 60 11 73 90 59 37 55 12 33
40 20 68 64 98 58 87 50 61 14 87 49 2 15 23 96 26 42 41 57
18 8 21 75 50 63 57 48 55 56 60 56 96 38 50 40 15 80 41 11
36 77 60 46 97 100 20 87 48 98 89 48 43 99 64 65 46 65 12 24
